; benchmark generated from python API
(set-info :status unknown)
(declare-fun cell_1_3 () Int)
(declare-fun cell_1_9 () Int)
(declare-fun cell_2_1 () Int)
(declare-fun cell_2_6 () Int)
(declare-fun cell_3_4 () Int)
(declare-fun cell_3_9 () Int)
(declare-fun cell_4_4 () Int)
(declare-fun cell_4_7 () Int)
(declare-fun cell_5_3 () Int)
(declare-fun cell_5_8 () Int)
(declare-fun cell_6_2 () Int)
(declare-fun cell_6_6 () Int)
(declare-fun cell_7_2 () Int)
(declare-fun cell_7_7 () Int)
(declare-fun cell_8_5 () Int)
(declare-fun cell_8_8 () Int)
(declare-fun cell_9_5 () Int)
(declare-fun cell_1_1 () Int)
(declare-fun cell_3_1 () Int)
(declare-fun cell_4_1 () Int)
(declare-fun cell_5_1 () Int)
(declare-fun cell_6_1 () Int)
(declare-fun cell_7_1 () Int)
(declare-fun cell_8_1 () Int)
(declare-fun cell_9_1 () Int)
(declare-fun cell_1_2 () Int)
(declare-fun cell_2_2 () Int)
(declare-fun cell_3_2 () Int)
(declare-fun cell_4_2 () Int)
(declare-fun cell_5_2 () Int)
(declare-fun cell_8_2 () Int)
(declare-fun cell_9_2 () Int)
(declare-fun cell_2_3 () Int)
(declare-fun cell_3_3 () Int)
(declare-fun cell_4_3 () Int)
(declare-fun cell_6_3 () Int)
(declare-fun cell_7_3 () Int)
(declare-fun cell_8_3 () Int)
(declare-fun cell_9_3 () Int)
(declare-fun cell_1_4 () Int)
(declare-fun cell_2_4 () Int)
(declare-fun cell_5_4 () Int)
(declare-fun cell_6_4 () Int)
(declare-fun cell_7_4 () Int)
(declare-fun cell_8_4 () Int)
(declare-fun cell_9_4 () Int)
(declare-fun cell_1_5 () Int)
(declare-fun cell_2_5 () Int)
(declare-fun cell_3_5 () Int)
(declare-fun cell_4_5 () Int)
(declare-fun cell_5_5 () Int)
(declare-fun cell_6_5 () Int)
(declare-fun cell_7_5 () Int)
(declare-fun cell_1_6 () Int)
(declare-fun cell_3_6 () Int)
(declare-fun cell_4_6 () Int)
(declare-fun cell_5_6 () Int)
(declare-fun cell_7_6 () Int)
(declare-fun cell_8_6 () Int)
(declare-fun cell_9_6 () Int)
(declare-fun cell_1_7 () Int)
(declare-fun cell_2_7 () Int)
(declare-fun cell_3_7 () Int)
(declare-fun cell_5_7 () Int)
(declare-fun cell_6_7 () Int)
(declare-fun cell_8_7 () Int)
(declare-fun cell_9_7 () Int)
(declare-fun cell_1_8 () Int)
(declare-fun cell_2_8 () Int)
(declare-fun cell_3_8 () Int)
(declare-fun cell_4_8 () Int)
(declare-fun cell_6_8 () Int)
(declare-fun cell_7_8 () Int)
(declare-fun cell_9_8 () Int)
(declare-fun cell_2_9 () Int)
(declare-fun cell_4_9 () Int)
(declare-fun cell_5_9 () Int)
(declare-fun cell_6_9 () Int)
(declare-fun cell_7_9 () Int)
(declare-fun cell_8_9 () Int)
(declare-fun cell_9_9 () Int)
(assert
 (= cell_1_3 2))
(assert
 (= cell_1_9 1))
(assert
 (= cell_2_1 1))
(assert
 (= cell_2_6 2))
(assert
 (= cell_3_4 1))
(assert
 (= cell_3_9 2))
(assert
 (= cell_4_4 2))
(assert
 (= cell_4_7 1))
(assert
 (= cell_5_3 1))
(assert
 (= cell_5_8 2))
(assert
 (= cell_6_2 2))
(assert
 (= cell_6_6 1))
(assert
 (= cell_7_2 1))
(assert
 (= cell_7_7 2))
(assert
 (= cell_8_5 2))
(assert
 (= cell_8_8 1))
(assert
 (= cell_9_5 1))
(assert
 (let (($x2349 (= cell_1_1 9)))
 (let (($x2953 (= cell_1_1 8)))
 (let (($x3124 (= cell_1_1 7)))
 (let (($x3559 (= cell_1_1 6)))
 (let (($x2811 (= cell_1_1 5)))
 (let (($x4067 (= cell_1_1 4)))
 (let (($x2211 (= cell_1_1 3)))
 (let (($x2517 (= cell_1_1 2)))
 (let (($x625 (= cell_1_1 1)))
 (or $x625 $x2517 $x2211 $x4067 $x2811 $x3559 $x3124 $x2953 $x2349)))))))))))
(assert
 (let (($x2568 (= cell_2_1 1)))
 (or $x2568 (= cell_2_1 2) (= cell_2_1 3) (= cell_2_1 4) (= cell_2_1 5) (= cell_2_1 6) (= cell_2_1 7) (= cell_2_1 8) (= cell_2_1 9))))
(assert
 (let (($x2292 (= cell_3_1 9)))
 (let (($x3827 (= cell_3_1 8)))
 (let (($x2674 (= cell_3_1 7)))
 (let (($x365 (= cell_3_1 6)))
 (let (($x4162 (= cell_3_1 5)))
 (let (($x3314 (= cell_3_1 4)))
 (let (($x1940 (= cell_3_1 3)))
 (let (($x3210 (= cell_3_1 2)))
 (let (($x2201 (= cell_3_1 1)))
 (or $x2201 $x3210 $x1940 $x3314 $x4162 $x365 $x2674 $x3827 $x2292)))))))))))
(assert
 (let (($x7770 (= cell_4_1 9)))
 (let (($x3674 (= cell_4_1 8)))
 (let (($x3384 (= cell_4_1 7)))
 (let (($x850 (= cell_4_1 6)))
 (let (($x2650 (= cell_4_1 5)))
 (let (($x3215 (= cell_4_1 4)))
 (let (($x2503 (= cell_4_1 3)))
 (let (($x4082 (= cell_4_1 2)))
 (let (($x11 (= cell_4_1 1)))
 (or $x11 $x4082 $x2503 $x3215 $x2650 $x850 $x3384 $x3674 $x7770)))))))))))
(assert
 (let (($x7788 (= cell_5_1 9)))
 (let (($x451 (= cell_5_1 8)))
 (let (($x1061 (= cell_5_1 7)))
 (let (($x922 (= cell_5_1 6)))
 (let (($x2914 (= cell_5_1 5)))
 (let (($x245 (= cell_5_1 4)))
 (let (($x1142 (= cell_5_1 3)))
 (let (($x1344 (= cell_5_1 2)))
 (let (($x746 (= cell_5_1 1)))
 (or $x746 $x1344 $x1142 $x245 $x2914 $x922 $x1061 $x451 $x7788)))))))))))
(assert
 (let (($x1354 (= cell_6_1 9)))
 (let (($x3531 (= cell_6_1 8)))
 (let (($x874 (= cell_6_1 7)))
 (let (($x2004 (= cell_6_1 6)))
 (let (($x2339 (= cell_6_1 5)))
 (let (($x1775 (= cell_6_1 4)))
 (let (($x2049 (= cell_6_1 3)))
 (let (($x1517 (= cell_6_1 2)))
 (let (($x3453 (= cell_6_1 1)))
 (or $x3453 $x1517 $x2049 $x1775 $x2339 $x2004 $x874 $x3531 $x1354)))))))))))
(assert
 (let (($x2445 (= cell_7_1 9)))
 (let (($x4119 (= cell_7_1 8)))
 (let (($x2193 (= cell_7_1 7)))
 (let (($x2003 (= cell_7_1 6)))
 (let (($x3274 (= cell_7_1 5)))
 (let (($x907 (= cell_7_1 4)))
 (let (($x1700 (= cell_7_1 3)))
 (let (($x2510 (= cell_7_1 2)))
 (let (($x1461 (= cell_7_1 1)))
 (or $x1461 $x2510 $x1700 $x907 $x3274 $x2003 $x2193 $x4119 $x2445)))))))))))
(assert
 (let (($x3236 (= cell_8_1 9)))
 (let (($x3339 (= cell_8_1 8)))
 (let (($x3094 (= cell_8_1 7)))
 (let (($x7851 (= cell_8_1 6)))
 (let (($x2086 (= cell_8_1 5)))
 (let (($x2068 (= cell_8_1 4)))
 (let (($x7839 (= cell_8_1 3)))
 (let (($x2641 (= cell_8_1 2)))
 (let (($x839 (= cell_8_1 1)))
 (or $x839 $x2641 $x7839 $x2068 $x2086 $x7851 $x3094 $x3339 $x3236)))))))))))
(assert
 (let (($x2417 (= cell_9_1 9)))
 (let (($x484 (= cell_9_1 8)))
 (let (($x83 (= cell_9_1 7)))
 (let (($x2789 (= cell_9_1 6)))
 (let (($x3047 (= cell_9_1 5)))
 (let (($x2441 (= cell_9_1 4)))
 (let (($x1209 (= cell_9_1 3)))
 (let (($x2142 (= cell_9_1 2)))
 (let (($x2771 (= cell_9_1 1)))
 (or $x2771 $x2142 $x1209 $x2441 $x3047 $x2789 $x83 $x484 $x2417)))))))))))
(assert
 (let (($x633 (= cell_1_2 9)))
 (let (($x1004 (= cell_1_2 8)))
 (let (($x3835 (= cell_1_2 7)))
 (let (($x793 (= cell_1_2 6)))
 (let (($x6753 (= cell_1_2 5)))
 (let (($x3184 (= cell_1_2 4)))
 (let (($x3103 (= cell_1_2 3)))
 (let (($x1615 (= cell_1_2 2)))
 (let (($x116 (= cell_1_2 1)))
 (or $x116 $x1615 $x3103 $x3184 $x6753 $x793 $x3835 $x1004 $x633)))))))))))
(assert
 (let (($x841 (= cell_2_2 9)))
 (let (($x3881 (= cell_2_2 8)))
 (let (($x6713 (= cell_2_2 7)))
 (let (($x2015 (= cell_2_2 6)))
 (let (($x2943 (= cell_2_2 5)))
 (let (($x1328 (= cell_2_2 4)))
 (let (($x177 (= cell_2_2 3)))
 (let (($x810 (= cell_2_2 2)))
 (let (($x579 (= cell_2_2 1)))
 (or $x579 $x810 $x177 $x1328 $x2943 $x2015 $x6713 $x3881 $x841)))))))))))
(assert
 (let (($x2488 (= cell_3_2 9)))
 (let (($x2620 (= cell_3_2 8)))
 (let (($x3041 (= cell_3_2 7)))
 (let (($x446 (= cell_3_2 6)))
 (let (($x3144 (= cell_3_2 5)))
 (let (($x33 (= cell_3_2 4)))
 (let (($x3432 (= cell_3_2 3)))
 (let (($x727 (= cell_3_2 2)))
 (let (($x708 (= cell_3_2 1)))
 (or $x708 $x727 $x3432 $x33 $x3144 $x446 $x3041 $x2620 $x2488)))))))))))
(assert
 (let (($x2847 (= cell_4_2 9)))
 (let (($x3720 (= cell_4_2 8)))
 (let (($x2579 (= cell_4_2 7)))
 (let (($x1946 (= cell_4_2 6)))
 (let (($x7670 (= cell_4_2 5)))
 (let (($x3591 (= cell_4_2 4)))
 (let (($x2259 (= cell_4_2 3)))
 (let (($x3702 (= cell_4_2 2)))
 (let (($x114 (= cell_4_2 1)))
 (or $x114 $x3702 $x2259 $x3591 $x7670 $x1946 $x2579 $x3720 $x2847)))))))))))
(assert
 (let (($x604 (= cell_5_2 9)))
 (let (($x1986 (= cell_5_2 8)))
 (let (($x1359 (= cell_5_2 7)))
 (let (($x188 (= cell_5_2 6)))
 (let (($x2564 (= cell_5_2 5)))
 (let (($x2812 (= cell_5_2 4)))
 (let (($x3570 (= cell_5_2 3)))
 (let (($x192 (= cell_5_2 2)))
 (let (($x316 (= cell_5_2 1)))
 (or $x316 $x192 $x3570 $x2812 $x2564 $x188 $x1359 $x1986 $x604)))))))))))
(assert
 (let (($x1847 (= cell_6_2 2)))
 (or (= cell_6_2 1) $x1847 (= cell_6_2 3) (= cell_6_2 4) (= cell_6_2 5) (= cell_6_2 6) (= cell_6_2 7) (= cell_6_2 8) (= cell_6_2 9))))
(assert
 (let (($x311 (= cell_7_2 1)))
 (or $x311 (= cell_7_2 2) (= cell_7_2 3) (= cell_7_2 4) (= cell_7_2 5) (= cell_7_2 6) (= cell_7_2 7) (= cell_7_2 8) (= cell_7_2 9))))
(assert
 (let (($x909 (= cell_8_2 9)))
 (let (($x832 (= cell_8_2 8)))
 (let (($x2529 (= cell_8_2 7)))
 (let (($x2499 (= cell_8_2 6)))
 (let (($x2229 (= cell_8_2 5)))
 (let (($x751 (= cell_8_2 4)))
 (let (($x3837 (= cell_8_2 3)))
 (let (($x3355 (= cell_8_2 2)))
 (let (($x2106 (= cell_8_2 1)))
 (or $x2106 $x3355 $x3837 $x751 $x2229 $x2499 $x2529 $x832 $x909)))))))))))
(assert
 (let (($x1675 (= cell_9_2 9)))
 (let (($x8025 (= cell_9_2 8)))
 (let (($x1188 (= cell_9_2 7)))
 (let (($x274 (= cell_9_2 6)))
 (let (($x1062 (= cell_9_2 5)))
 (let (($x1047 (= cell_9_2 4)))
 (let (($x289 (= cell_9_2 3)))
 (let (($x474 (= cell_9_2 2)))
 (let (($x7685 (= cell_9_2 1)))
 (or $x7685 $x474 $x289 $x1047 $x1062 $x274 $x1188 $x8025 $x1675)))))))))))
(assert
 (let (($x2647 (= cell_1_3 2)))
 (or (= cell_1_3 1) $x2647 (= cell_1_3 3) (= cell_1_3 4) (= cell_1_3 5) (= cell_1_3 6) (= cell_1_3 7) (= cell_1_3 8) (= cell_1_3 9))))
(assert
 (let (($x2918 (= cell_2_3 9)))
 (let (($x1757 (= cell_2_3 8)))
 (let (($x835 (= cell_2_3 7)))
 (let (($x3664 (= cell_2_3 6)))
 (let (($x1868 (= cell_2_3 5)))
 (let (($x3083 (= cell_2_3 4)))
 (let (($x485 (= cell_2_3 3)))
 (let (($x2668 (= cell_2_3 2)))
 (let (($x3794 (= cell_2_3 1)))
 (or $x3794 $x2668 $x485 $x3083 $x1868 $x3664 $x835 $x1757 $x2918)))))))))))
(assert
 (let (($x7776 (= cell_3_3 9)))
 (let (($x868 (= cell_3_3 8)))
 (let (($x2741 (= cell_3_3 7)))
 (let (($x1716 (= cell_3_3 6)))
 (let (($x3457 (= cell_3_3 5)))
 (let (($x2808 (= cell_3_3 4)))
 (let (($x7643 (= cell_3_3 3)))
 (let (($x954 (= cell_3_3 2)))
 (let (($x1768 (= cell_3_3 1)))
 (or $x1768 $x954 $x7643 $x2808 $x3457 $x1716 $x2741 $x868 $x7776)))))))))))
(assert
 (let (($x3727 (= cell_4_3 9)))
 (let (($x1373 (= cell_4_3 8)))
 (let (($x508 (= cell_4_3 7)))
 (let (($x3968 (= cell_4_3 6)))
 (let (($x499 (= cell_4_3 5)))
 (let (($x986 (= cell_4_3 4)))
 (let (($x3180 (= cell_4_3 3)))
 (let (($x1541 (= cell_4_3 2)))
 (let (($x540 (= cell_4_3 1)))
 (or $x540 $x1541 $x3180 $x986 $x499 $x3968 $x508 $x1373 $x3727)))))))))))
(assert
 (let (($x482 (= cell_5_3 1)))
 (or $x482 (= cell_5_3 2) (= cell_5_3 3) (= cell_5_3 4) (= cell_5_3 5) (= cell_5_3 6) (= cell_5_3 7) (= cell_5_3 8) (= cell_5_3 9))))
(assert
 (let (($x1347 (= cell_6_3 9)))
 (let (($x1211 (= cell_6_3 8)))
 (let (($x1636 (= cell_6_3 7)))
 (let (($x2029 (= cell_6_3 6)))
 (let (($x167 (= cell_6_3 5)))
 (let (($x3350 (= cell_6_3 4)))
 (let (($x2411 (= cell_6_3 3)))
 (let (($x2750 (= cell_6_3 2)))
 (let (($x525 (= cell_6_3 1)))
 (or $x525 $x2750 $x2411 $x3350 $x167 $x2029 $x1636 $x1211 $x1347)))))))))))
(assert
 (let (($x7666 (= cell_7_3 9)))
 (let (($x1093 (= cell_7_3 8)))
 (let (($x3763 (= cell_7_3 7)))
 (let (($x2670 (= cell_7_3 6)))
 (let (($x3366 (= cell_7_3 5)))
 (let (($x1392 (= cell_7_3 4)))
 (let (($x673 (= cell_7_3 3)))
 (let (($x2783 (= cell_7_3 2)))
 (let (($x235 (= cell_7_3 1)))
 (or $x235 $x2783 $x673 $x1392 $x3366 $x2670 $x3763 $x1093 $x7666)))))))))))
(assert
 (let (($x26 (= cell_8_3 9)))
 (let (($x3205 (= cell_8_3 8)))
 (let (($x6988 (= cell_8_3 7)))
 (let (($x7875 (= cell_8_3 6)))
 (let (($x31 (= cell_8_3 5)))
 (let (($x2606 (= cell_8_3 4)))
 (let (($x1604 (= cell_8_3 3)))
 (let (($x455 (= cell_8_3 2)))
 (let (($x1481 (= cell_8_3 1)))
 (or $x1481 $x455 $x1604 $x2606 $x31 $x7875 $x6988 $x3205 $x26)))))))))))
(assert
 (let (($x1135 (= cell_9_3 9)))
 (let (($x80 (= cell_9_3 8)))
 (let (($x3372 (= cell_9_3 7)))
 (let (($x642 (= cell_9_3 6)))
 (let (($x2610 (= cell_9_3 5)))
 (let (($x61 (= cell_9_3 4)))
 (let (($x1466 (= cell_9_3 3)))
 (let (($x843 (= cell_9_3 2)))
 (let (($x49 (= cell_9_3 1)))
 (or $x49 $x843 $x1466 $x61 $x2610 $x642 $x3372 $x80 $x1135)))))))))))
(assert
 (let (($x112 (= cell_1_4 9)))
 (let (($x3575 (= cell_1_4 8)))
 (let (($x2557 (= cell_1_4 7)))
 (let (($x2098 (= cell_1_4 6)))
 (let (($x4243 (= cell_1_4 5)))
 (let (($x1838 (= cell_1_4 4)))
 (let (($x308 (= cell_1_4 3)))
 (let (($x1866 (= cell_1_4 2)))
 (let (($x404 (= cell_1_4 1)))
 (or $x404 $x1866 $x308 $x1838 $x4243 $x2098 $x2557 $x3575 $x112)))))))))))
(assert
 (let (($x2414 (= cell_2_4 9)))
 (let (($x2419 (= cell_2_4 8)))
 (let (($x1448 (= cell_2_4 7)))
 (let (($x1759 (= cell_2_4 6)))
 (let (($x3298 (= cell_2_4 5)))
 (let (($x3342 (= cell_2_4 4)))
 (let (($x1196 (= cell_2_4 3)))
 (let (($x3361 (= cell_2_4 2)))
 (let (($x2199 (= cell_2_4 1)))
 (or $x2199 $x3361 $x1196 $x3342 $x3298 $x1759 $x1448 $x2419 $x2414)))))))))))
(assert
 (let (($x439 (= cell_3_4 1)))
 (or $x439 (= cell_3_4 2) (= cell_3_4 3) (= cell_3_4 4) (= cell_3_4 5) (= cell_3_4 6) (= cell_3_4 7) (= cell_3_4 8) (= cell_3_4 9))))
(assert
 (let (($x697 (= cell_4_4 2)))
 (or (= cell_4_4 1) $x697 (= cell_4_4 3) (= cell_4_4 4) (= cell_4_4 5) (= cell_4_4 6) (= cell_4_4 7) (= cell_4_4 8) (= cell_4_4 9))))
(assert
 (let (($x326 (= cell_5_4 9)))
 (let (($x3711 (= cell_5_4 8)))
 (let (($x2681 (= cell_5_4 7)))
 (let (($x3713 (= cell_5_4 6)))
 (let (($x4051 (= cell_5_4 5)))
 (let (($x2108 (= cell_5_4 4)))
 (let (($x2028 (= cell_5_4 3)))
 (let (($x1422 (= cell_5_4 2)))
 (let (($x3326 (= cell_5_4 1)))
 (or $x3326 $x1422 $x2028 $x2108 $x4051 $x3713 $x2681 $x3711 $x326)))))))))))
(assert
 (let (($x2818 (= cell_6_4 9)))
 (let (($x2786 (= cell_6_4 8)))
 (let (($x2009 (= cell_6_4 7)))
 (let (($x856 (= cell_6_4 6)))
 (let (($x3232 (= cell_6_4 5)))
 (let (($x1075 (= cell_6_4 4)))
 (let (($x2094 (= cell_6_4 3)))
 (let (($x271 (= cell_6_4 2)))
 (let (($x2172 (= cell_6_4 1)))
 (or $x2172 $x271 $x2094 $x1075 $x3232 $x856 $x2009 $x2786 $x2818)))))))))))
(assert
 (let (($x4156 (= cell_7_4 9)))
 (let (($x750 (= cell_7_4 8)))
 (let (($x4124 (= cell_7_4 7)))
 (let (($x3080 (= cell_7_4 6)))
 (let (($x586 (= cell_7_4 5)))
 (let (($x3739 (= cell_7_4 4)))
 (let (($x2878 (= cell_7_4 3)))
 (let (($x6858 (= cell_7_4 2)))
 (let (($x3406 (= cell_7_4 1)))
 (or $x3406 $x6858 $x2878 $x3739 $x586 $x3080 $x4124 $x750 $x4156)))))))))))
(assert
 (let (($x3203 (= cell_8_4 9)))
 (let (($x4247 (= cell_8_4 8)))
 (let (($x869 (= cell_8_4 7)))
 (let (($x694 (= cell_8_4 6)))
 (let (($x731 (= cell_8_4 5)))
 (let (($x1666 (= cell_8_4 4)))
 (let (($x2271 (= cell_8_4 3)))
 (let (($x2634 (= cell_8_4 2)))
 (let (($x2929 (= cell_8_4 1)))
 (or $x2929 $x2634 $x2271 $x1666 $x731 $x694 $x869 $x4247 $x3203)))))))))))
(assert
 (let (($x2958 (= cell_9_4 9)))
 (let (($x1284 (= cell_9_4 8)))
 (let (($x2743 (= cell_9_4 7)))
 (let (($x1164 (= cell_9_4 6)))
 (let (($x1581 (= cell_9_4 5)))
 (let (($x1610 (= cell_9_4 4)))
 (let (($x14 (= cell_9_4 3)))
 (let (($x1899 (= cell_9_4 2)))
 (let (($x2243 (= cell_9_4 1)))
 (or $x2243 $x1899 $x14 $x1610 $x1581 $x1164 $x2743 $x1284 $x2958)))))))))))
(assert
 (let (($x2642 (= cell_1_5 9)))
 (let (($x1821 (= cell_1_5 8)))
 (let (($x1703 (= cell_1_5 7)))
 (let (($x1503 (= cell_1_5 6)))
 (let (($x7044 (= cell_1_5 5)))
 (let (($x2883 (= cell_1_5 4)))
 (let (($x3626 (= cell_1_5 3)))
 (let (($x709 (= cell_1_5 2)))
 (let (($x2153 (= cell_1_5 1)))
 (or $x2153 $x709 $x3626 $x2883 $x7044 $x1503 $x1703 $x1821 $x2642)))))))))))
(assert
 (let (($x2810 (= cell_2_5 9)))
 (let (($x2148 (= cell_2_5 8)))
 (let (($x1474 (= cell_2_5 7)))
 (let (($x1382 (= cell_2_5 6)))
 (let (($x1791 (= cell_2_5 5)))
 (let (($x2722 (= cell_2_5 4)))
 (let (($x2621 (= cell_2_5 3)))
 (let (($x2776 (= cell_2_5 2)))
 (let (($x481 (= cell_2_5 1)))
 (or $x481 $x2776 $x2621 $x2722 $x1791 $x1382 $x1474 $x2148 $x2810)))))))))))
(assert
 (let (($x152 (= cell_3_5 9)))
 (let (($x2116 (= cell_3_5 8)))
 (let (($x1165 (= cell_3_5 7)))
 (let (($x2426 (= cell_3_5 6)))
 (let (($x2244 (= cell_3_5 5)))
 (let (($x1255 (= cell_3_5 4)))
 (let (($x1268 (= cell_3_5 3)))
 (let (($x916 (= cell_3_5 2)))
 (let (($x2128 (= cell_3_5 1)))
 (or $x2128 $x916 $x1268 $x1255 $x2244 $x2426 $x1165 $x2116 $x152)))))))))))
(assert
 (let (($x3445 (= cell_4_5 9)))
 (let (($x7674 (= cell_4_5 8)))
 (let (($x4224 (= cell_4_5 7)))
 (let (($x806 (= cell_4_5 6)))
 (let (($x1664 (= cell_4_5 5)))
 (let (($x2762 (= cell_4_5 4)))
 (let (($x1410 (= cell_4_5 3)))
 (let (($x1042 (= cell_4_5 2)))
 (let (($x2383 (= cell_4_5 1)))
 (or $x2383 $x1042 $x1410 $x2762 $x1664 $x806 $x4224 $x7674 $x3445)))))))))))
(assert
 (let (($x320 (= cell_5_5 9)))
 (let (($x8008 (= cell_5_5 8)))
 (let (($x21 (= cell_5_5 7)))
 (let (($x3789 (= cell_5_5 6)))
 (let (($x1315 (= cell_5_5 5)))
 (let (($x2546 (= cell_5_5 4)))
 (let (($x3390 (= cell_5_5 3)))
 (let (($x1057 (= cell_5_5 2)))
 (let (($x3145 (= cell_5_5 1)))
 (or $x3145 $x1057 $x3390 $x2546 $x1315 $x3789 $x21 $x8008 $x320)))))))))))
(assert
 (let (($x3665 (= cell_6_5 9)))
 (let (($x3782 (= cell_6_5 8)))
 (let (($x2119 (= cell_6_5 7)))
 (let (($x1734 (= cell_6_5 6)))
 (let (($x2037 (= cell_6_5 5)))
 (let (($x6981 (= cell_6_5 4)))
 (let (($x229 (= cell_6_5 3)))
 (let (($x1551 (= cell_6_5 2)))
 (let (($x3724 (= cell_6_5 1)))
 (or $x3724 $x1551 $x229 $x6981 $x2037 $x1734 $x2119 $x3782 $x3665)))))))))))
(assert
 (let (($x3163 (= cell_7_5 9)))
 (let (($x509 (= cell_7_5 8)))
 (let (($x99 (= cell_7_5 7)))
 (let (($x3169 (= cell_7_5 6)))
 (let (($x1206 (= cell_7_5 5)))
 (let (($x339 (= cell_7_5 4)))
 (let (($x3121 (= cell_7_5 3)))
 (let (($x622 (= cell_7_5 2)))
 (let (($x2473 (= cell_7_5 1)))
 (or $x2473 $x622 $x3121 $x339 $x1206 $x3169 $x99 $x509 $x3163)))))))))))
(assert
 (let (($x1991 (= cell_8_5 2)))
 (or (= cell_8_5 1) $x1991 (= cell_8_5 3) (= cell_8_5 4) (= cell_8_5 5) (= cell_8_5 6) (= cell_8_5 7) (= cell_8_5 8) (= cell_8_5 9))))
(assert
 (let (($x1000 (= cell_9_5 1)))
 (or $x1000 (= cell_9_5 2) (= cell_9_5 3) (= cell_9_5 4) (= cell_9_5 5) (= cell_9_5 6) (= cell_9_5 7) (= cell_9_5 8) (= cell_9_5 9))))
(assert
 (let (($x1515 (= cell_1_6 9)))
 (let (($x646 (= cell_1_6 8)))
 (let (($x108 (= cell_1_6 7)))
 (let (($x7791 (= cell_1_6 6)))
 (let (($x2310 (= cell_1_6 5)))
 (let (($x2800 (= cell_1_6 4)))
 (let (($x776 (= cell_1_6 3)))
 (let (($x960 (= cell_1_6 2)))
 (let (($x3767 (= cell_1_6 1)))
 (or $x3767 $x960 $x776 $x2800 $x2310 $x7791 $x108 $x646 $x1515)))))))))))
(assert
 (let (($x1274 (= cell_2_6 2)))
 (or (= cell_2_6 1) $x1274 (= cell_2_6 3) (= cell_2_6 4) (= cell_2_6 5) (= cell_2_6 6) (= cell_2_6 7) (= cell_2_6 8) (= cell_2_6 9))))
(assert
 (let (($x273 (= cell_3_6 9)))
 (let (($x991 (= cell_3_6 8)))
 (let (($x3395 (= cell_3_6 7)))
 (let (($x1558 (= cell_3_6 6)))
 (let (($x4008 (= cell_3_6 5)))
 (let (($x93 (= cell_3_6 4)))
 (let (($x823 (= cell_3_6 3)))
 (let (($x3610 (= cell_3_6 2)))
 (let (($x2707 (= cell_3_6 1)))
 (or $x2707 $x3610 $x823 $x93 $x4008 $x1558 $x3395 $x991 $x273)))))))))))
(assert
 (let (($x174 (= cell_4_6 9)))
 (let (($x3606 (= cell_4_6 8)))
 (let (($x359 (= cell_4_6 7)))
 (let (($x997 (= cell_4_6 6)))
 (let (($x979 (= cell_4_6 5)))
 (let (($x1987 (= cell_4_6 4)))
 (let (($x1774 (= cell_4_6 3)))
 (let (($x3916 (= cell_4_6 2)))
 (let (($x8011 (= cell_4_6 1)))
 (or $x8011 $x3916 $x1774 $x1987 $x979 $x997 $x359 $x3606 $x174)))))))))))
(assert
 (let (($x3317 (= cell_5_6 9)))
 (let (($x469 (= cell_5_6 8)))
 (let (($x584 (= cell_5_6 7)))
 (let (($x3779 (= cell_5_6 6)))
 (let (($x224 (= cell_5_6 5)))
 (let (($x529 (= cell_5_6 4)))
 (let (($x7993 (= cell_5_6 3)))
 (let (($x2794 (= cell_5_6 2)))
 (let (($x783 (= cell_5_6 1)))
 (or $x783 $x2794 $x7993 $x529 $x224 $x3779 $x584 $x469 $x3317)))))))))))
(assert
 (let (($x2493 (= cell_6_6 1)))
 (or $x2493 (= cell_6_6 2) (= cell_6_6 3) (= cell_6_6 4) (= cell_6_6 5) (= cell_6_6 6) (= cell_6_6 7) (= cell_6_6 8) (= cell_6_6 9))))
(assert
 (let (($x454 (= cell_7_6 9)))
 (let (($x3903 (= cell_7_6 8)))
 (let (($x1191 (= cell_7_6 7)))
 (let (($x127 (= cell_7_6 6)))
 (let (($x1830 (= cell_7_6 5)))
 (let (($x815 (= cell_7_6 4)))
 (let (($x863 (= cell_7_6 3)))
 (let (($x883 (= cell_7_6 2)))
 (let (($x1322 (= cell_7_6 1)))
 (or $x1322 $x883 $x863 $x815 $x1830 $x127 $x1191 $x3903 $x454)))))))))))
(assert
 (let (($x513 (= cell_8_6 9)))
 (let (($x2892 (= cell_8_6 8)))
 (let (($x1406 (= cell_8_6 7)))
 (let (($x1012 (= cell_8_6 6)))
 (let (($x2516 (= cell_8_6 5)))
 (let (($x1626 (= cell_8_6 4)))
 (let (($x2795 (= cell_8_6 3)))
 (let (($x2705 (= cell_8_6 2)))
 (let (($x910 (= cell_8_6 1)))
 (or $x910 $x2705 $x2795 $x1626 $x2516 $x1012 $x1406 $x2892 $x513)))))))))))
(assert
 (let (($x1804 (= cell_9_6 2)))
 (let (($x1059 (= cell_9_6 1)))
 (or $x1059 $x1804 (= cell_9_6 3) (= cell_9_6 4) (= cell_9_6 5) (= cell_9_6 6) (= cell_9_6 7) (= cell_9_6 8) (= cell_9_6 9)))))
(assert
 (let (($x48 (= cell_1_7 9)))
 (let (($x268 (= cell_1_7 8)))
 (let (($x576 (= cell_1_7 7)))
 (let (($x958 (= cell_1_7 6)))
 (let (($x1893 (= cell_1_7 5)))
 (let (($x1735 (= cell_1_7 4)))
 (let (($x3340 (= cell_1_7 3)))
 (let (($x7748 (= cell_1_7 2)))
 (let (($x3847 (= cell_1_7 1)))
 (or $x3847 $x7748 $x3340 $x1735 $x1893 $x958 $x576 $x268 $x48)))))))))))
(assert
 (let (($x6733 (= cell_2_7 9)))
 (let (($x3478 (= cell_2_7 8)))
 (let (($x931 (= cell_2_7 7)))
 (let (($x19 (= cell_2_7 6)))
 (let (($x1919 (= cell_2_7 5)))
 (let (($x4093 (= cell_2_7 4)))
 (let (($x822 (= cell_2_7 3)))
 (let (($x1145 (= cell_2_7 2)))
 (let (($x269 (= cell_2_7 1)))
 (or $x269 $x1145 $x822 $x4093 $x1919 $x19 $x931 $x3478 $x6733)))))))))))
(assert
 (let (($x1709 (= cell_3_7 9)))
 (let (($x528 (= cell_3_7 8)))
 (let (($x3293 (= cell_3_7 7)))
 (let (($x2599 (= cell_3_7 6)))
 (let (($x4092 (= cell_3_7 5)))
 (let (($x3190 (= cell_3_7 4)))
 (let (($x714 (= cell_3_7 3)))
 (let (($x1352 (= cell_3_7 2)))
 (let (($x1833 (= cell_3_7 1)))
 (or $x1833 $x1352 $x714 $x3190 $x4092 $x2599 $x3293 $x528 $x1709)))))))))))
(assert
 (let (($x2347 (= cell_4_7 1)))
 (or $x2347 (= cell_4_7 2) (= cell_4_7 3) (= cell_4_7 4) (= cell_4_7 5) (= cell_4_7 6) (= cell_4_7 7) (= cell_4_7 8) (= cell_4_7 9))))
(assert
 (let (($x2179 (= cell_5_7 9)))
 (let (($x606 (= cell_5_7 8)))
 (let (($x2550 (= cell_5_7 7)))
 (let (($x687 (= cell_5_7 6)))
 (let (($x743 (= cell_5_7 5)))
 (let (($x2569 (= cell_5_7 4)))
 (let (($x739 (= cell_5_7 3)))
 (let (($x125 (= cell_5_7 2)))
 (let (($x2078 (= cell_5_7 1)))
 (or $x2078 $x125 $x739 $x2569 $x743 $x687 $x2550 $x606 $x2179)))))))))))
(assert
 (let (($x2053 (= cell_6_7 9)))
 (let (($x3849 (= cell_6_7 8)))
 (let (($x3716 (= cell_6_7 7)))
 (let (($x292 (= cell_6_7 6)))
 (let (($x1851 (= cell_6_7 5)))
 (let (($x2478 (= cell_6_7 4)))
 (let (($x2284 (= cell_6_7 3)))
 (let (($x574 (= cell_6_7 2)))
 (let (($x2220 (= cell_6_7 1)))
 (or $x2220 $x574 $x2284 $x2478 $x1851 $x292 $x3716 $x3849 $x2053)))))))))))
(assert
 (let (($x2020 (= cell_7_7 2)))
 (or (= cell_7_7 1) $x2020 (= cell_7_7 3) (= cell_7_7 4) (= cell_7_7 5) (= cell_7_7 6) (= cell_7_7 7) (= cell_7_7 8) (= cell_7_7 9))))
(assert
 (let (($x1092 (= cell_8_7 9)))
 (let (($x1800 (= cell_8_7 8)))
 (let (($x3136 (= cell_8_7 7)))
 (let (($x2598 (= cell_8_7 6)))
 (let (($x2698 (= cell_8_7 5)))
 (let (($x3769 (= cell_8_7 4)))
 (let (($x1682 (= cell_8_7 3)))
 (let (($x1171 (= cell_8_7 2)))
 (let (($x7047 (= cell_8_7 1)))
 (or $x7047 $x1171 $x1682 $x3769 $x2698 $x2598 $x3136 $x1800 $x1092)))))))))))
(assert
 (let (($x3918 (= cell_9_7 2)))
 (let (($x1155 (= cell_9_7 1)))
 (or $x1155 $x3918 (= cell_9_7 3) (= cell_9_7 4) (= cell_9_7 5) (= cell_9_7 6) (= cell_9_7 7) (= cell_9_7 8) (= cell_9_7 9)))))
(assert
 (let (($x3265 (= cell_1_8 9)))
 (let (($x1574 (= cell_1_8 8)))
 (let (($x7484 (= cell_1_8 7)))
 (let (($x974 (= cell_1_8 6)))
 (let (($x1715 (= cell_1_8 5)))
 (let (($x3870 (= cell_1_8 4)))
 (let (($x193 (= cell_1_8 3)))
 (let (($x1415 (= cell_1_8 2)))
 (let (($x1444 (= cell_1_8 1)))
 (or $x1444 $x1415 $x193 $x3870 $x1715 $x974 $x7484 $x1574 $x3265)))))))))))
(assert
 (let (($x3762 (= cell_2_8 9)))
 (let (($x651 (= cell_2_8 8)))
 (let (($x1889 (= cell_2_8 7)))
 (let (($x1013 (= cell_2_8 6)))
 (let (($x1383 (= cell_2_8 5)))
 (let (($x2434 (= cell_2_8 4)))
 (let (($x1607 (= cell_2_8 3)))
 (let (($x1714 (= cell_2_8 2)))
 (let (($x1079 (= cell_2_8 1)))
 (or $x1079 $x1714 $x1607 $x2434 $x1383 $x1013 $x1889 $x651 $x3762)))))))))))
(assert
 (let (($x1742 (= cell_3_8 9)))
 (let (($x3562 (= cell_3_8 8)))
 (let (($x3773 (= cell_3_8 7)))
 (let (($x637 (= cell_3_8 6)))
 (let (($x3153 (= cell_3_8 5)))
 (let (($x3838 (= cell_3_8 4)))
 (let (($x1121 (= cell_3_8 3)))
 (let (($x2151 (= cell_3_8 2)))
 (let (($x2077 (= cell_3_8 1)))
 (or $x2077 $x2151 $x1121 $x3838 $x3153 $x637 $x3773 $x3562 $x1742)))))))))))
(assert
 (let (($x265 (= cell_4_8 9)))
 (let (($x7756 (= cell_4_8 8)))
 (let (($x1788 (= cell_4_8 7)))
 (let (($x554 (= cell_4_8 6)))
 (let (($x864 (= cell_4_8 5)))
 (let (($x3806 (= cell_4_8 4)))
 (let (($x7800 (= cell_4_8 3)))
 (let (($x1599 (= cell_4_8 2)))
 (let (($x820 (= cell_4_8 1)))
 (or $x820 $x1599 $x7800 $x3806 $x864 $x554 $x1788 $x7756 $x265)))))))))))
(assert
 (let (($x2456 (= cell_5_8 2)))
 (or (= cell_5_8 1) $x2456 (= cell_5_8 3) (= cell_5_8 4) (= cell_5_8 5) (= cell_5_8 6) (= cell_5_8 7) (= cell_5_8 8) (= cell_5_8 9))))
(assert
 (let (($x2666 (= cell_6_8 9)))
 (let (($x3538 (= cell_6_8 8)))
 (let (($x1534 (= cell_6_8 7)))
 (let (($x1932 (= cell_6_8 6)))
 (let (($x1967 (= cell_6_8 5)))
 (let (($x1426 (= cell_6_8 4)))
 (let (($x2835 (= cell_6_8 3)))
 (let (($x1074 (= cell_6_8 2)))
 (let (($x1958 (= cell_6_8 1)))
 (or $x1958 $x1074 $x2835 $x1426 $x1967 $x1932 $x1534 $x3538 $x2666)))))))))))
(assert
 (let (($x2661 (= cell_7_8 9)))
 (let (($x76 (= cell_7_8 8)))
 (let (($x471 (= cell_7_8 7)))
 (let (($x1554 (= cell_7_8 6)))
 (let (($x4150 (= cell_7_8 5)))
 (let (($x7980 (= cell_7_8 4)))
 (let (($x3278 (= cell_7_8 3)))
 (let (($x2461 (= cell_7_8 2)))
 (let (($x6868 (= cell_7_8 1)))
 (or $x6868 $x2461 $x3278 $x7980 $x4150 $x1554 $x471 $x76 $x2661)))))))))))
(assert
 (let (($x996 (= cell_8_8 1)))
 (or $x996 (= cell_8_8 2) (= cell_8_8 3) (= cell_8_8 4) (= cell_8_8 5) (= cell_8_8 6) (= cell_8_8 7) (= cell_8_8 8) (= cell_8_8 9))))
(assert
 (let (($x2699 (= cell_9_8 2)))
 (let (($x3646 (= cell_9_8 1)))
 (or $x3646 $x2699 (= cell_9_8 3) (= cell_9_8 4) (= cell_9_8 5) (= cell_9_8 6) (= cell_9_8 7) (= cell_9_8 8) (= cell_9_8 9)))))
(assert
 (let (($x1290 (= cell_1_9 1)))
 (or $x1290 (= cell_1_9 2) (= cell_1_9 3) (= cell_1_9 4) (= cell_1_9 5) (= cell_1_9 6) (= cell_1_9 7) (= cell_1_9 8) (= cell_1_9 9))))
(assert
 (let (($x253 (= cell_2_9 9)))
 (let (($x2288 (= cell_2_9 8)))
 (let (($x1933 (= cell_2_9 7)))
 (let (($x2584 (= cell_2_9 6)))
 (let (($x2949 (= cell_2_9 5)))
 (let (($x2097 (= cell_2_9 4)))
 (let (($x1349 (= cell_2_9 3)))
 (let (($x4083 (= cell_2_9 2)))
 (let (($x409 (= cell_2_9 1)))
 (or $x409 $x4083 $x1349 $x2097 $x2949 $x2584 $x1933 $x2288 $x253)))))))))))
(assert
 (let (($x452 (= cell_3_9 2)))
 (or (= cell_3_9 1) $x452 (= cell_3_9 3) (= cell_3_9 4) (= cell_3_9 5) (= cell_3_9 6) (= cell_3_9 7) (= cell_3_9 8) (= cell_3_9 9))))
(assert
 (let (($x2132 (= cell_4_9 9)))
 (let (($x3889 (= cell_4_9 8)))
 (let (($x447 (= cell_4_9 7)))
 (let (($x990 (= cell_4_9 6)))
 (let (($x3857 (= cell_4_9 5)))
 (let (($x846 (= cell_4_9 4)))
 (let (($x3214 (= cell_4_9 3)))
 (let (($x2920 (= cell_4_9 2)))
 (let (($x2898 (= cell_4_9 1)))
 (or $x2898 $x2920 $x3214 $x846 $x3857 $x990 $x447 $x3889 $x2132)))))))))))
(assert
 (let (($x3541 (= cell_5_9 9)))
 (let (($x2882 (= cell_5_9 8)))
 (let (($x2837 (= cell_5_9 7)))
 (let (($x813 (= cell_5_9 6)))
 (let (($x2372 (= cell_5_9 5)))
 (let (($x2346 (= cell_5_9 4)))
 (let (($x522 (= cell_5_9 3)))
 (let (($x3242 (= cell_5_9 2)))
 (let (($x762 (= cell_5_9 1)))
 (or $x762 $x3242 $x522 $x2346 $x2372 $x813 $x2837 $x2882 $x3541)))))))))))
(assert
 (let (($x1763 (= cell_6_9 2)))
 (let (($x1974 (= cell_6_9 1)))
 (or $x1974 $x1763 (= cell_6_9 3) (= cell_6_9 4) (= cell_6_9 5) (= cell_6_9 6) (= cell_6_9 7) (= cell_6_9 8) (= cell_6_9 9)))))
(assert
 (let (($x757 (= cell_7_9 9)))
 (let (($x2970 (= cell_7_9 8)))
 (let (($x185 (= cell_7_9 7)))
 (let (($x4155 (= cell_7_9 6)))
 (let (($x993 (= cell_7_9 5)))
 (let (($x28 (= cell_7_9 4)))
 (let (($x3757 (= cell_7_9 3)))
 (let (($x1985 (= cell_7_9 2)))
 (let (($x211 (= cell_7_9 1)))
 (or $x211 $x1985 $x3757 $x28 $x993 $x4155 $x185 $x2970 $x757)))))))))))
(assert
 (let (($x2374 (= cell_8_9 2)))
 (let (($x2458 (= cell_8_9 1)))
 (or $x2458 $x2374 (= cell_8_9 3) (= cell_8_9 4) (= cell_8_9 5) (= cell_8_9 6) (= cell_8_9 7) (= cell_8_9 8) (= cell_8_9 9)))))
(assert
 (let (($x927 (= cell_9_9 2)))
 (let (($x2672 (= cell_9_9 1)))
 (or $x2672 $x927 (= cell_9_9 3) (= cell_9_9 4) (= cell_9_9 5) (= cell_9_9 6) (= cell_9_9 7) (= cell_9_9 8) (= cell_9_9 9)))))
(assert
 (and (distinct cell_1_1 cell_1_2 cell_1_3 cell_1_4 cell_1_5 cell_1_6 cell_1_7 cell_1_8 cell_1_9) true))
(assert
 (and (distinct cell_2_1 cell_2_2 cell_2_3 cell_2_4 cell_2_5 cell_2_6 cell_2_7 cell_2_8 cell_2_9) true))
(assert
 (and (distinct cell_3_1 cell_3_2 cell_3_3 cell_3_4 cell_3_5 cell_3_6 cell_3_7 cell_3_8 cell_3_9) true))
(assert
 (and (distinct cell_4_1 cell_4_2 cell_4_3 cell_4_4 cell_4_5 cell_4_6 cell_4_7 cell_4_8 cell_4_9) true))
(assert
 (and (distinct cell_5_1 cell_5_2 cell_5_3 cell_5_4 cell_5_5 cell_5_6 cell_5_7 cell_5_8 cell_5_9) true))
(assert
 (and (distinct cell_6_1 cell_6_2 cell_6_3 cell_6_4 cell_6_5 cell_6_6 cell_6_7 cell_6_8 cell_6_9) true))
(assert
 (and (distinct cell_7_1 cell_7_2 cell_7_3 cell_7_4 cell_7_5 cell_7_6 cell_7_7 cell_7_8 cell_7_9) true))
(assert
 (and (distinct cell_8_1 cell_8_2 cell_8_3 cell_8_4 cell_8_5 cell_8_6 cell_8_7 cell_8_8 cell_8_9) true))
(assert
 (and (distinct cell_9_1 cell_9_2 cell_9_3 cell_9_4 cell_9_5 cell_9_6 cell_9_7 cell_9_8 cell_9_9) true))
(assert
 (and (distinct cell_1_1 cell_2_1 cell_3_1 cell_4_1 cell_5_1 cell_6_1 cell_7_1 cell_8_1 cell_9_1) true))
(assert
 (and (distinct cell_1_2 cell_2_2 cell_3_2 cell_4_2 cell_5_2 cell_6_2 cell_7_2 cell_8_2 cell_9_2) true))
(assert
 (and (distinct cell_1_3 cell_2_3 cell_3_3 cell_4_3 cell_5_3 cell_6_3 cell_7_3 cell_8_3 cell_9_3) true))
(assert
 (and (distinct cell_1_4 cell_2_4 cell_3_4 cell_4_4 cell_5_4 cell_6_4 cell_7_4 cell_8_4 cell_9_4) true))
(assert
 (and (distinct cell_1_5 cell_2_5 cell_3_5 cell_4_5 cell_5_5 cell_6_5 cell_7_5 cell_8_5 cell_9_5) true))
(assert
 (and (distinct cell_1_6 cell_2_6 cell_3_6 cell_4_6 cell_5_6 cell_6_6 cell_7_6 cell_8_6 cell_9_6) true))
(assert
 (and (distinct cell_1_7 cell_2_7 cell_3_7 cell_4_7 cell_5_7 cell_6_7 cell_7_7 cell_8_7 cell_9_7) true))
(assert
 (and (distinct cell_1_8 cell_2_8 cell_3_8 cell_4_8 cell_5_8 cell_6_8 cell_7_8 cell_8_8 cell_9_8) true))
(assert
 (and (distinct cell_1_9 cell_2_9 cell_3_9 cell_4_9 cell_5_9 cell_6_9 cell_7_9 cell_8_9 cell_9_9) true))
(assert
 (and (distinct cell_1_1 cell_1_2 cell_1_3 cell_2_1 cell_2_2 cell_2_3 cell_3_1 cell_3_2 cell_3_3) true))
(assert
 (and (distinct cell_1_4 cell_1_5 cell_1_6 cell_2_4 cell_2_5 cell_2_6 cell_3_4 cell_3_5 cell_3_6) true))
(assert
 (and (distinct cell_1_7 cell_1_8 cell_1_9 cell_2_7 cell_2_8 cell_2_9 cell_3_7 cell_3_8 cell_3_9) true))
(assert
 (and (distinct cell_4_1 cell_4_2 cell_4_3 cell_5_1 cell_5_2 cell_5_3 cell_6_1 cell_6_2 cell_6_3) true))
(assert
 (and (distinct cell_4_4 cell_4_5 cell_4_6 cell_5_4 cell_5_5 cell_5_6 cell_6_4 cell_6_5 cell_6_6) true))
(assert
 (and (distinct cell_4_7 cell_4_8 cell_4_9 cell_5_7 cell_5_8 cell_5_9 cell_6_7 cell_6_8 cell_6_9) true))
(assert
 (and (distinct cell_7_1 cell_7_2 cell_7_3 cell_8_1 cell_8_2 cell_8_3 cell_9_1 cell_9_2 cell_9_3) true))
(assert
 (and (distinct cell_7_4 cell_7_5 cell_7_6 cell_8_4 cell_8_5 cell_8_6 cell_9_4 cell_9_5 cell_9_6) true))
(assert
 (and (distinct cell_7_7 cell_7_8 cell_7_9 cell_8_7 cell_8_8 cell_8_9 cell_9_7 cell_9_8 cell_9_9) true))
(assert
 (let (($x3854 (and (distinct cell_5_9 cell_6_8 cell_7_7 cell_8_6) true)))
 (let (($x2439 (and (distinct cell_2_9 cell_3_8 cell_4_7 cell_5_6 cell_6_5 cell_7_4 cell_8_3 cell_9_2) true)))
 (let (($x4061 (and (distinct cell_1_8 cell_2_7 cell_3_6 cell_4_5 cell_5_4 cell_6_3 cell_7_2 cell_8_1) true)))
 (let (($x6828 (and (distinct cell_1_5 cell_2_4 cell_3_3 cell_4_2) true)))
 (let (($x1608 (and (distinct cell_5_1 cell_6_2 cell_7_3 cell_8_4) true)))
 (let (($x1033 (and (distinct cell_2_1 cell_3_2 cell_4_3 cell_5_4 cell_6_5 cell_7_6 cell_8_7 cell_9_8) true)))
 (let (($x4230 (and (distinct cell_1_2 cell_2_3 cell_3_4 cell_4_5 cell_5_6 cell_6_7 cell_7_8 cell_8_9) true)))
 (let (($x745 (and (distinct cell_1_5 cell_2_6 cell_3_7 cell_4_8) true)))
 (and $x745 $x4230 $x1033 $x1608 $x6828 $x4061 $x2439 $x3854))))))))))
(assert
 (= cell_9_1 2))
(check-sat)
